1207
1791
393
1911
1196
903
1405
1748
976
568
176
1556
1924
478
312
1256
295
1276
433
760
776
565
1137
1475
854
1503
339
1511
1005
288
2148
247
570
991
638
91
1488
1763
566
1203
97
1440
581
420
476
185
926
750
696
1384
